130076
9,28,13,69,61,25,75,66,19,76,16,55,6,26,37,34,27,78,5,77,40,51,38,62,82,7,52,58,17,36,12,47,23,30,64,49,3,60,14,68,24,41,54,22,11,59,80,1,29,74,67,43,21,4,18,20,53,45,44,79,35,65,57,73,39,15,42,2,56,33,48,46,71,50,32,10,81,31,8,70,72,63,0,9